# Solution for model r3_t27_m7_9
# Finished Task: 23 / 27
# Makespan: 861.0, Total Distance: 1256.0, Total Time: 1.3350
# R O S F
0 0 5 0.0 0.0
1 1 28 0.0 0.0
2 2 27 0.0 0.0
3 1 4 401.0 428.0
4 1 24 482.0 521.0
5 0 6 136.0 167.0
6 0 17 382.0 418.0
7 -1 -1 -1.0 -1.0
8 2 26 617.0 646.0
9 1 -1 826.0 861.0
10 0 20 628.0 656.0
11 1 12 289.0 324.0
12 1 3 362.0 401.0
13 0 -1 798.0 825.0
14 2 22 250.0 272.0
15 1 9 686.0 707.0
16 2 29 728.0 754.0
17 0 23 514.0 548.0
18 -1 -1 -1.0 -1.0
19 -1 -1 -1.0 -1.0
20 0 13 703.0 731.0
21 2 8 457.0 488.0
22 2 21 418.0 457.0
23 0 10 574.0 611.0
24 1 15 588.0 610.0
25 -1 -1 -1.0 -1.0
26 2 16 657.0 691.0
27 2 14 177.0 203.0
28 1 11 49.0 80.0
29 2 -1 788.0 814.0
